words_hard_train/2139.qaiger
aag 59 16 0 1 43
2
4
12
14
22
32
34
44
48
50
60
62
70
72
88
116
118
6 2 5
8 3 4
10 7 9
16 13 14
18 12 15
20 17 19
24 20 23
26 21 22
28 25 27
30 10 29
36 32 35
38 33 34
40 37 39
42 31 41
46 42 45
52 48 51
54 49 50
56 53 55
58 57 45
64 60 62
66 61 63
68 65 67
74 70 73
76 71 72
78 75 77
80 69 79
82 68 45
84 81 83
86 59 84
90 22 89
92 23 88
94 91 93
96 79 95
98 97 44
100 95 56
102 99 101
104 86 102
106 47 104
108 40 44
110 11 29
112 108 111
114 106 113
118 115 117
i0 1 x1[1]
i1 2 y2[1]
i2 1 x1[0]
i3 2 y2[0]
i4 1 x1[6]
i5 1 x1[2]
i6 2 y2[2]
i7 1 x1[7]
i8 1 x1[5]
i9 2 y2[5]
i10 1 x1[3]
i11 2 y2[3]
i12 1 x1[4]
i13 2 y2[4]
i14 2 y2[6]
i15 2 y2[7]
o0 bv[0]
c
simplified
  <=
    -251
    xor
      xor
        2 y2
        1 x1
      >> 6
        1 x1
