words_hard_train/2139.qaiger.qdimacs
p cnf 59 130
a 1 35 6 11 16 22 24 30 0
e 2 3 4 5 7 8 9 10 12 13 14 15 17 18 19 20 21 23 25 26 27 28 29 31 32 33 34 36 37 38 39 40 41 42 43 44 45 46 47 48 49 50 51 52 53 54 55 56 57 58 59 0
-1 2 3 0
1 -3 0
-2 -3 0
1 -2 4 0
-1 -4 0
2 -4 0
3 4 5 0
-3 -5 0
-4 -5 0
6 -7 8 0
-6 -8 0
7 -8 0
-6 7 9 0
6 -9 0
-7 -9 0
8 9 10 0
-8 -10 0
-9 -10 0
-10 11 12 0
10 -12 0
-11 -12 0
10 -11 13 0
-10 -13 0
11 -13 0
12 13 14 0
-12 -14 0
-13 -14 0
-5 14 15 0
5 -15 0
-14 -15 0
-16 17 18 0
16 -18 0
-17 -18 0
16 -17 19 0
-16 -19 0
17 -19 0
18 19 20 0
-18 -20 0
-19 -20 0
15 20 21 0
-15 -21 0
-20 -21 0
-21 22 23 0
21 -23 0
-22 -23 0
-24 25 26 0
24 -26 0
-25 -26 0
24 -25 27 0
-24 -27 0
25 -27 0
26 27 28 0
-26 -28 0
-27 -28 0
28 22 29 0
-28 -29 0
-22 -29 0
-30 -31 32 0
30 -32 0
31 -32 0
30 31 33 0
-30 -33 0
-31 -33 0
32 33 34 0
-32 -34 0
-33 -34 0
-35 36 37 0
35 -37 0
-36 -37 0
35 -36 38 0
-35 -38 0
36 -38 0
37 38 39 0
-37 -39 0
-38 -39 0
34 39 40 0
-34 -40 0
-39 -40 0
-34 22 41 0
34 -41 0
-22 -41 0
40 41 42 0
-40 -42 0
-41 -42 0
29 -42 43 0
-29 -43 0
42 -43 0
-11 44 45 0
11 -45 0
-44 -45 0
11 -44 46 0
-11 -46 0
44 -46 0
45 46 47 0
-45 -47 0
-46 -47 0
39 47 48 0
-39 -48 0
-47 -48 0
48 -22 49 0
-48 -49 0
22 -49 0
47 -28 50 0
-47 -50 0
28 -50 0
49 50 51 0
-49 -51 0
-50 -51 0
-43 -51 52 0
43 -52 0
51 -52 0
23 -52 53 0
-23 -53 0
52 -53 0
-20 -22 54 0
20 -54 0
22 -54 0
5 14 55 0
-5 -55 0
-14 -55 0
-54 55 56 0
54 -56 0
-55 -56 0
-53 56 57 0
53 -57 0
-56 -57 0
57 58 59 0
-57 -59 0
-58 -59 0
59 0
